10
4
10, 47, 16, 39, 21, 46, 37, 31, 39, 34, 25, 24, 23, 12, 23, 38, 47, 36, 43, 33, 44, 26, 48, 41, 38, 25, 38, 47, 45, 25, 11, 44, 14, 45, 49, 40, 26, 41, 35, 48
45, 13, 85, 55, 46, 71, 98, 91, 14, 71, 68, 97, 62, 26, 78, 23, 74, 21, 90, 17, 30, 78, 68, 19, 32, 59, 52, 67, 57, 73, 36, 83, 35, 12, 70, 29, 69, 94, 28, 72
3, 1, 1, 4, 4, 3, 1, 4, 1, 2, 3, 3, 1, 2, 2, 2, 4, 1, 4, 4, 4, 4, 1, 4, 4, 2, 2, 3, 3, 3, 3, 1, 2, 2, 2, 1, 2, 4, 1, 4